0 57002 
1 54340 
2 49714 
3 49666 
4 49294 
5 49184 
6 48816 
7 48416 
8 48076 
9 46904 
10 46818 
11 46038 
12 45812 
13 45610 
14 44050 
15 42070 
16 41854 
17 41072 
18 40696 
19 39524 
20 38514 
21 38434 
22 38148 
23 37756 
24 37700 
25 37644 
26 37456 
27 35316 
28 34664 
29 34492 
30 33832 
31 33770 
32 33158 
33 33158 

